Route #1:
Route #2: 11 31
Route #3: 27 20
Route #4: 10 15 25 22 8 23 16
Route #5: 4 9 2 24
Route #6: 14
Route #7: 12 13 28 17 3
Route #8: 19 21 6 29 7 26
Route #9: 18
Route #10: 30 1
Route #11: 5

Cost: 1941.0880211325584
